proyfinal/src/viki/013/experimentInOfficeAgust.take6.output/e6daa7d6-b7bb-432c-8029-ce24213f53a4.als.dat
{'cnf.clauses': '118081',
 'cnf.totvars': '69608',
 'conflict literals': '94',
 'conflicts': '30',
 'decisions': '12398',
 'memused.mb': '16.12',
 'outcome': 'UNSAT',
 'propagations': '45167',
 'restarts': '1',
 'solver.msecs': 39,
 'task.msecs': 83}
