proyfinal/src/viki/013/experimentInOfficeAgust.take6.output/e6daa7d6-b7bb-432c-8029-ce24213f53a4.als.out
Reading from standard input... Use '--help' for help.
============================[ Problem Statistics ]=============================
|                                                                             |
|  Number of variables:         69608                                         |
|  Number of clauses:          118081                                         |
|  Parse time:                   0.02 s                                       |
|                                                                             |
============================[ Search Statistics ]==============================
| Conflicts |          ORIGINAL         |          LEARNT          | Progress |
|           |    Vars  Clauses Literals |    Limit  Clauses Lit/Cl |          |
===============================================================================
===============================================================================
restarts              : 1
conflicts             : 30             (764 /sec)
decisions             : 12398          (0.00 % random) (315680 /sec)
propagations          : 45167          (1150048 /sec)
conflict literals     : 94             (0.00 % deleted)
Memory used           : 16.12 MB
CPU time              : 0.039274 s

UNSATISFIABLE
